db/inputs/468943812752253762568021280266423807.smt2
(set-logic QF_FP)
(declare-const x0 (_ FloatingPoint 11 53))
(declare-const x1 (_ FloatingPoint 11 53))
(declare-const x2 (_ FloatingPoint 11 53))
(declare-const x3 (_ FloatingPoint 11 53))
(declare-const x4 (_ FloatingPoint 11 53))
(declare-const x5 (_ FloatingPoint 11 53))
(declare-const x6 (_ FloatingPoint 11 53))
(declare-const x7 (_ FloatingPoint 11 53))
(declare-const x8 (_ FloatingPoint 11 53))
(declare-const x9 (_ FloatingPoint 11 53))
(declare-const x10 (_ FloatingPoint 11 53))
(declare-const x11 (_ FloatingPoint 11 53))
(declare-const x12 (_ FloatingPoint 11 53))
(declare-const x13 (_ FloatingPoint 11 53))
(declare-const x14 (_ FloatingPoint 11 53))
(declare-const x15 (_ FloatingPoint 11 53))
(assert (fp.lt (fp.neg (fp.mul RNE (fp.mul RNE (fp.div RNE x9 x15) (fp.add RNE x8 x9)) (fp.sub RNE (fp.neg x12) (fp.mul RNE x2 x5)))) (fp.sub RNE (fp.mul RNE (fp.sub RNE (fp.div RNE x0 x7) (fp.sub RNE x2 x10)) (fp.neg (fp.sub RNE x13 x3))) (fp.div RNE (fp.add RNE (fp.div RNE x10 x11) (fp.add RNE x13 x7)) (fp.neg (fp.add RNE x4 x12))))))
(check-sat)
