db/data/468943812752253762568021280266423807.z3.out
-------------------
2500.174385615
